n_res = 4;
rc = [ 33, 23, 24, 27 ];
n_tasks = 30;
d = [ 7, 9, 1, 1, 9, 8, 3, 1, 10, 9, 10, 2, 1, 5, 3, 9, 8, 4, 10, 5, 3, 4, 5, 7, 5, 2, 2, 2, 6, 6 ];
rr = [| 33, 33, 33, 33, 33, 33, 33, 33, 33, 33, 33, 33, 33, 33, 33, 33, 33, 33, 33, 33, 33, 33, 33, 33, 33, 33, 33, 33, 33, 33
      | 23, 23, 23, 23, 23, 23, 23, 23, 23, 23, 23, 23, 23, 23, 23, 23, 23, 23, 23, 23, 23, 23, 23, 23, 23, 23, 23, 23, 23, 23
      | 24, 24, 24, 24, 24, 24, 24, 24, 24, 24, 24, 24, 24, 24, 24, 24, 24, 24, 24, 24, 24, 24, 24, 24, 24, 24, 24, 24, 24, 24
      | 27, 27, 27, 27, 27, 27, 27, 27, 27, 27, 27, 27, 27, 27, 27, 27, 27, 27, 27, 27, 27, 27, 27, 27, 27, 27, 27, 27, 27, 27|];
suc = [ { 7, 9, 12 },
       { 4, 8, 18 },
       { 5, 15, 16 },
       { 9, 17, 30 },
       { 6, 21 },
       { 27 },
       { 10, 11 },
       { 13, 26 },
       { 29 },
       { 23 },
       { 14, 20 },
       { 16 },
       { 19 },
       { 29 },
       { 24 },
       { 20 },
       { 28 },
       { 19, 22, 23 },
       { 20 },
       { 27 },
       { 25 },
       { 25 },
       { 24, 28 },
       { 29 },
       { 27 },
       { 30 },
       { 30 },
       {  },
       {  },
       {  } ];
